0 416
1 408
2 396
4 372
9 326
11 298
12 282
20 274
33 264
34 254
44 246
61 226
64 216
69 214
73 206
144 198
160 196
304 194
309 192
372 188
466 176
468 170
570 166
857 164
5365 160
5702 158
11878 154
11938 152
